10 45
1 2 19
1 3 6
1 4 8
1 5 9
1 6 22
1 7 8
1 8 13
1 9 12
1 10 27
2 3 7
2 4 26
2 5 25
2 6 19
2 7 6
2 8 27
2 9 13
2 10 12
3 4 17
3 5 2
3 6 11
3 7 21
3 8 5
3 9 0
3 10 12
4 5 21
4 6 16
4 7 9
4 8 15
4 9 26
4 10 25
5 6 19
5 7 1
5 8 27
5 9 7
5 10 15
6 7 4
6 8 1
6 9 1
6 10 20
7 8 11
7 9 15
7 10 22
8 9 7
8 10 19
9 10 28
